500
1000
380
379
379
379
378
376
376
376
374
373
373
370
369
368
366
366
365
364
362
362
362
361
361
360
359
359
359
358
356
356
355
355
355
355
352
352
352
351
351
351
349
349
348
348
348
346
345
344
344
344
343
343
343
341
341
340
340
339
338
336
335
335
335
334
334
333
333
332
332
331
330
330
330
329
328
327
327
327
327
327
326
326
325
324
322
322
321
320
320
319
319
318
315
313
313
313
313
313
313
309
307
306
306
303
301
300
299
298
297
296
296
295
294
294
294
294
293
293
292
292
292
292
292
291
291
291
290
290
289
289
288
288
288
288
286
285
283
282
281
280
278
277
276
275
274
273
271
271
270
270
269
269
269
268
268
267
267
266
265
265
265
261
260
260
259
259
258
258
258
257
257
257
257
256
254
253
252
251
251
251
249
249
249
249
247
247
246
246
246
245
244
243
243
242
242
241
241
241
239
239
238
237
236
236
235
235
235
234
234
234
232
232
231
230
228
228
228
227
227
226
225
224
223
222
222
221
221
221
220
220
217
216
216
216
216
216
215
214
213
213
213
210
210
210
210
210
210
209
208
208
207
207
206
205
205
203
203
201
200
200
200
199
199
199
198
196
192
189
189
188
188
187
186
186
185
184
181
180
180
180
179
179
178
174
174
173
173
172
171
170
170
169
168
167
167
166
166
166
164
163
163
163
162
162
161
161
160
160
159
159
159
157
156
155
153
153
152
151
150
150
150
149
148
148
148
148
146
145
145
144
144
143
142
141
140
138
138
138
137
137
136
135
134
133
132
132
132
131
130
130
129
129
129
129
129
128
127
127
127
127
127
126
123
123
122
122
122
121
121
121
120
120
120
118
118
115
114
114
114
113
113
112
112
112
111
111
110
110
109
109
108
107
107
106
106
105
103
102
102
98
98
97
97
97
96
91
90
90
89
89
88
87
86
84
84
83
83
81
80
80
80
80
79
79
78
78
77
77
77
76
76
76
75
71
71
71
70
69
68
67
65
65
65
64
64
63
62
62
62
58
56
55
54
53
52
50
50
50
49
49
48
48
48
47
46
46
45
44
43
42
42
41
39
39
39
39
38
38
37
35
35
34
34
33
33
32
32
32
31
29
26
26
26
24
24
23
23
22
22
22
